158325.57,55.09,68.32
166349.82,52.44,65.02
171212.09,50.95,63.18
171339.06,50.91,63.13
179829.3,48.51,60.15
168679.46,51.71,64.13
171467.99,50.87,63.08
160696.69,54.28,67.31
152391.11,57.24,70.98
161904.13,53.88,66.81
184992.55,47.15,58.47
168290.73,51.83,64.27
183421.75,47.56,58.97
164043.9,53.17,65.94
151961.9,57.4,71.18
174390.74,50.02,62.03
166259.95,52.46,65.06
155811.36,55.98,69.42
154960.85,56.29,69.8
160049.31,54.5,67.58
